NAME : XML100_3144_11
DIMENSION : 101
NB_CLUSTERS : 3
CLUSTERING_ALG : DBSCAN
CLUSTERING_PARAMS : eps(129), minSamples(3)
CLUSTERS
1 0
2 1 4 5 6 9 10 11 12 16 17 22 24 27 28 32 34 35 38 43 44 46 49 50 55 56 58 63 64 65 66 68 69 71 72 74 75 78 79 81 82 83 87 89 95 98
3 2 3 7 8 13 14 15 18 19 20 21 23 25 26 29 30 31 33 36 37 39 40 41 42 45 47 48 51 52 53 54 57 59 60 61 62 67 70 73 76 77 80 84 85 86 88 90 91 92 93 94 96 97 99 100
EOF